p edge 50 132
e 1 6
e 1 8
e 1 10
e 1 14
e 1 39
e 1 44
e 1 45
e 1 49
e 2 5
e 2 10
e 2 12
e 2 19
e 2 21
e 2 28
e 2 31
e 2 32
e 2 39
e 2 49
e 3 8
e 3 10
e 3 43
e 3 50
e 4 16
e 4 37
e 4 50
e 5 22
e 5 24
e 5 32
e 5 42
e 6 7
e 6 28
e 6 29
e 6 39
e 7 21
e 7 26
e 7 31
e 7 32
e 8 16
e 8 19
e 8 22
e 8 28
e 8 49
e 9 17
e 9 38
e 10 20
e 10 23
e 10 26
e 10 28
e 10 34
e 10 41
e 11 17
e 11 23
e 11 33
e 11 34
e 11 41
e 11 50
e 12 27
e 12 30
e 12 40
e 13 16
e 13 26
e 13 29
e 13 33
e 13 39
e 13 48
e 14 19
e 14 26
e 14 41
e 14 45
e 14 47
e 15 18
e 15 28
e 15 31
e 15 33
e 15 44
e 16 28
e 17 33
e 17 35
e 18 31
e 18 43
e 19 23
e 19 27
e 19 50
e 20 32
e 21 23
e 22 25
e 22 26
e 23 27
e 23 30
e 23 33
e 23 36
e 23 39
e 23 41
e 23 44
e 24 37
e 24 44
e 24 48
e 25 38
e 25 45
e 26 33
e 26 37
e 27 32
e 27 35
e 27 40
e 27 47
e 28 30
e 28 33
e 29 43
e 29 45
e 29 48
e 30 33
e 30 35
e 30 36
e 30 37
e 30 39
e 31 33
e 32 48
e 32 50
e 33 37
e 33 39
e 34 43
e 35 41
e 35 45
e 38 43
e 38 50
e 39 44
e 40 48
e 42 47
e 43 50
e 44 47
e 45 46
e 46 50
